NAME          ClpDefau
ROWS
 N  OBJROW
 L  R_196_0
 L  R_196_1
 L  R_196_2
 L  R_196_3
 L  R_196_4
 L  R_196_5
 L  R_196_6
 L  R_196_7
COLUMNS
    x_0       OBJROW     -1.           R_196_4   4.          
    x_1       OBJROW     -2.           R_196_2   23.         
    x_1       R_196_4   42.            R_196_5   66.         
    x_2       OBJROW     -2.           R_196_1   58.         
    x_3       OBJROW     -6.           R_196_2   97.         
    x_4       OBJROW     -3.        
    x_5       OBJROW     -5.        
    x_6       OBJROW     -5.        
    x_7       OBJROW     -10.       
    x_8       OBJROW     -4.           R_196_0   25.         
    x_8       R_196_2   74.            R_196_7   67.         
    x_9       OBJROW     -10.          R_196_0   35.         
    x_9       R_196_6   47.         
    x_10      OBJROW     -1.           R_196_1   15.         
    x_10      R_196_3   94.            R_196_6   21.         
    x_11      OBJROW     -10.          R_196_1   76.         
    x_11      R_196_2   32.            R_196_3   5.          
    x_11      R_196_4   79.         
    x_12      OBJROW     -3.           R_196_4   34.         
    x_13      OBJROW     -7.           R_196_4   58.         
    x_14      OBJROW     -7.        
    x_15      OBJROW     -9.           R_196_4   22.         
    x_15      R_196_5   82.         
RHS
    RHS       R_196_0   205.           R_196_1   162.        
    RHS       R_196_2   175.           R_196_3   174.        
    RHS       R_196_4   205.           R_196_5   188.        
    RHS       R_196_6   164.           R_196_7   176.        
BOUNDS
 UI BOUND     x_0       10.         
 UI BOUND     x_1       10.         
 UI BOUND     x_2       10.         
 UI BOUND     x_3       10.         
 UI BOUND     x_4       10.         
 UI BOUND     x_5       10.         
 UI BOUND     x_6       10.         
 UI BOUND     x_7       10.         
 UI BOUND     x_8       10.         
 UI BOUND     x_9       10.         
 UI BOUND     x_10      10.         
 UI BOUND     x_11      10.         
 UI BOUND     x_12      10.         
 UI BOUND     x_13      10.         
 UI BOUND     x_14      10.         
 UI BOUND     x_15      10.         
ENDATA
